NAME = AISearchfile180,
TOURSIZE = 180,
LENGTH = 755290,
30,35,98,161,39,43,50,162,52,73,84,87,88,65,94,105,113,117,112,127,129,132,71,134,139,140,146,176,150,170,169,64,106,173,97,121,58,147,34,19,22,115,118,29,90,76,119,8,133,122,178,48,12,25,153,123,33,59,45,143,54,156,91,13,104,27,72,144,116,167,81,37,92,96,24,26,142,36,166,83,138,85,108,103,174,158,7,109,23,20,165,151,180,148,62,175,69,125,155,95,66,42,15,75,5,163,47,111,9,171,80,46,126,57,110,82,21,78,61,6,137,102,51,100,18,130,14,136,160,56,67,179,17,40,152,55,32,107,53,79,28,168,149,159,120,44,131,3,1,99,89,124,49,63,154,157,70,135,68,16,172,60,177,41,77,4,141,145,10,38,93,11,31,128,74,2,114,101,86,164